40
1 0 34
2 0 4
2 1 4
3 0 25
3 1 20
3 2 29
4 0 46
4 1 19
4 2 3
4 3 41
5 0 18
5 1 34
5 2 24
5 3 2
5 4 1
6 0 22
6 1 10
6 2 21
6 3 38
6 4 43
6 5 30
7 0 15
7 1 47
7 2 22
7 3 31
7 4 11
7 5 12
7 6 3
8 0 30
8 1 15
8 2 25
8 3 30
8 4 41
8 5 35
8 6 33
8 7 48
9 0 16
9 1 48
9 2 39
9 3 9
9 4 38
9 5 15
9 6 7
9 7 18
9 8 19
10 0 22
10 1 7
10 2 27
10 3 32
10 4 24
10 5 20
10 6 25
10 7 33
10 8 36
10 9 26
11 0 18
11 1 38
11 2 31
11 3 37
11 4 30
11 5 49
11 6 12
11 7 29
11 8 17
11 9 37
11 10 49
12 0 43
12 1 25
12 2 29
12 3 3
12 4 4
12 5 5
12 6 28
12 7 31
12 8 27
12 9 25
12 10 24
12 11 48
13 0 10
13 1 37
13 2 11
13 3 19
13 4 2
13 5 3
13 6 43
13 7 48
13 8 49
13 9 17
13 10 12
13 11 32
13 12 15
14 0 48
14 1 16
14 2 2
14 3 32
14 4 17
14 5 22
14 6 22
14 7 5
14 8 13
14 9 3
14 10 7
14 11 13
14 12 34
14 13 48
15 0 4
15 1 38
15 2 29
15 3 50
15 4 10
15 5 8
15 6 47
15 7 21
15 8 13
15 9 45
15 10 18
15 11 40
15 12 40
15 13 34
15 14 16
16 0 4
16 1 36
16 2 37
16 3 21
16 4 46
16 5 29
16 6 31
16 7 13
16 8 30
16 9 16
16 10 24
16 11 16
16 12 17
16 13 21
16 14 8
16 15 19
17 0 21
17 1 30
17 2 13
17 3 11
17 4 29
17 5 15
17 6 21
17 7 36
17 8 42
17 9 42
17 10 3
17 11 23
17 12 15
17 13 45
17 14 23
17 15 20
17 16 45
18 0 35
18 1 10
18 2 31
18 3 3
18 4 5
18 5 46
18 6 34
18 7 32
18 8 11
18 9 2
18 10 20
18 11 40
18 12 45
18 13 7
18 14 9
18 15 21
18 16 19
18 17 47
19 0 41
19 1 26
19 2 22
19 3 47
19 4 41
19 5 27
19 6 50
19 7 26
19 8 18
19 9 29
19 10 22
19 11 38
19 12 34
19 13 45
19 14 27
19 15 18
19 16 19
19 17 12
19 18 34
20 0 30
20 1 36
20 2 48
20 3 38
20 4 41
20 5 24
20 6 37
20 7 43
20 8 13
20 9 19
20 10 35
20 11 26
20 12 11
20 13 12
20 14 38
20 15 29
20 16 20
20 17 44
20 18 2
20 19 26
21 0 21
21 1 34
21 2 19
21 3 39
21 4 39
21 5 38
21 6 6
21 7 46
21 8 26
21 9 11
21 10 13
21 11 3
21 12 26
21 13 37
21 14 50
21 15 11
21 16 3
21 17 24
21 18 32
21 19 31
21 20 22
22 0 4
22 1 18
22 2 39
22 3 17
22 4 21
22 5 12
22 6 6
22 7 19
22 8 8
22 9 27
22 10 30
22 11 8
22 12 16
22 13 5
22 14 5
22 15 33
22 16 22
22 17 27
22 18 49
22 19 41
22 20 8
22 21 21
23 0 10
23 1 24
23 2 49
23 3 26
23 4 10
23 5 20
23 6 45
23 7 9
23 8 7
23 9 28
23 10 50
23 11 4
23 12 2
23 13 20
23 14 2
23 15 46
23 16 26
23 17 24
23 18 2
23 19 3
23 20 33
23 21 30
23 22 2
24 0 2
24 1 2
24 2 31
24 3 23
24 4 14
24 5 46
24 6 18
24 7 12
24 8 31
24 9 47
24 10 23
24 11 11
24 12 33
24 13 14
24 14 47
24 15 24
24 16 27
24 17 36
24 18 33
24 19 49
24 20 10
24 21 10
24 22 27
24 23 9
25 0 47
25 1 46
25 2 27
25 3 42
25 4 33
25 5 43
25 6 9
25 7 11
25 8 25
25 9 22
25 10 4
25 11 2
25 12 37
25 13 31
25 14 18
25 15 13
25 16 31
25 17 37
25 18 33
25 19 20
25 20 3
25 21 35
25 22 24
25 23 43
25 24 20
26 0 30
26 1 8
26 2 40
26 3 47
26 4 32
26 5 5
26 6 1
26 7 45
26 8 47
26 9 35
26 10 17
26 11 23
26 12 46
26 13 4
26 14 22
26 15 47
26 16 45
26 17 44
26 18 29
26 19 35
26 20 20
26 21 17
26 22 20
26 23 2
26 24 10
26 25 36
27 0 17
27 1 10
27 2 50
27 3 31
27 4 13
27 5 12
27 6 34
27 7 42
27 8 34
27 9 25
27 10 48
27 11 40
27 12 21
27 13 43
27 14 8
27 15 30
27 16 27
27 17 48
27 18 30
27 19 19
27 20 9
27 21 4
27 22 25
27 23 20
27 24 18
27 25 29
27 26 30
28 0 14
28 1 45
28 2 35
28 3 41
28 4 42
28 5 18
28 6 18
28 7 31
28 8 48
28 9 3
28 10 22
28 11 5
28 12 9
28 13 3
28 14 14
28 15 32
28 16 45
28 17 32
28 18 29
28 19 45
28 20 30
28 21 13
28 22 2
28 23 25
28 24 10
28 25 22
28 26 11
28 27 21
29 0 37
29 1 5
29 2 28
29 3 12
29 4 36
29 5 35
29 6 31
29 7 32
29 8 2
29 9 47
29 10 42
29 11 35
29 12 12
29 13 28
29 14 19
29 15 49
29 16 22
29 17 10
29 18 48
29 19 34
29 20 16
29 21 49
29 22 34
29 23 41
29 24 42
29 25 39
29 26 13
29 27 30
29 28 47
30 0 23
30 1 9
30 2 29
30 3 40
30 4 35
30 5 32
30 6 35
30 7 48
30 8 4
30 9 14
30 10 44
30 11 7
30 12 19
30 13 9
30 14 27
30 15 24
30 16 27
30 17 36
30 18 2
30 19 40
30 20 39
30 21 37
30 22 13
30 23 38
30 24 20
30 25 37
30 26 29
30 27 23
30 28 28
30 29 45
31 0 2
31 1 15
31 2 13
31 3 34
31 4 19
31 5 29
31 6 46
31 7 48
31 8 18
31 9 12
31 10 19
31 11 34
31 12 29
31 13 5
31 14 21
31 15 13
31 16 22
31 17 7
31 18 1
31 19 21
31 20 10
31 21 25
31 22 35
31 23 22
31 24 18
31 25 50
31 26 10
31 27 28
31 28 27
31 29 35
31 30 42
32 0 9
32 1 32
32 2 26
32 3 22
32 4 13
32 5 13
32 6 10
32 7 45
32 8 41
32 9 14
32 10 42
32 11 28
32 12 32
32 13 14
32 14 2
32 15 50
32 16 20
32 17 11
32 18 15
32 19 39
32 20 50
32 21 17
32 22 5
32 23 31
32 24 33
32 25 26
32 26 45
32 27 37
32 28 9
32 29 18
32 30 6
32 31 18
33 0 21
33 1 34
33 2 29
33 3 35
33 4 34
33 5 21
33 6 5
33 7 47
33 8 46
33 9 41
33 10 13
33 11 48
33 12 40
33 13 35
33 14 23
33 15 39
33 16 33
33 17 50
33 18 41
33 19 8
33 20 32
33 21 45
33 22 25
33 23 32
33 24 48
33 25 19
33 26 32
33 27 49
33 28 7
33 29 34
33 30 35
33 31 46
33 32 6
34 0 24
34 1 11
34 2 32
34 3 42
34 4 21
34 5 11
34 6 8
34 7 24
34 8 16
34 9 20
34 10 43
34 11 42
34 12 15
34 13 19
34 14 45
34 15 44
34 16 36
34 17 21
34 18 31
34 19 18
34 20 27
34 21 10
34 22 48
34 23 50
34 24 18
34 25 42
34 26 9
34 27 31
34 28 38
34 29 1
34 30 7
34 31 11
34 32 3
34 33 12
35 0 13
35 1 9
35 2 46
35 3 8
35 4 1
35 5 19
35 6 38
35 7 34
35 8 11
35 9 35
35 10 4
35 11 25
35 12 28
35 13 42
35 14 46
35 15 48
35 16 20
35 17 9
35 18 38
35 19 22
35 20 29
35 21 34
35 22 21
35 23 38
35 24 32
35 25 26
35 26 10
35 27 24
35 28 50
35 29 11
35 30 41
35 31 28
35 32 37
35 33 29
35 34 13
36 0 14
36 1 8
36 2 17
36 3 20
36 4 10
36 5 14
36 6 31
36 7 6
36 8 18
36 9 38
36 10 24
36 11 15
36 12 24
36 13 14
36 14 13
36 15 32
36 16 13
36 17 44
36 18 19
36 19 28
36 20 22
36 21 12
36 22 37
36 23 25
36 24 15
36 25 31
36 26 14
36 27 12
36 28 21
36 29 2
36 30 36
36 31 6
36 32 46
36 33 46
36 34 5
36 35 23
37 0 46
37 1 11
37 2 18
37 3 15
37 4 26
37 5 45
37 6 1
37 7 22
37 8 23
37 9 3
37 10 2
37 11 21
37 12 40
37 13 17
37 14 48
37 15 29
37 16 39
37 17 6
37 18 13
37 19 40
37 20 42
37 21 43
37 22 22
37 23 21
37 24 25
37 25 28
37 26 8
37 27 12
37 28 26
37 29 3
37 30 27
37 31 36
37 32 42
37 33 42
37 34 20
37 35 44
37 36 31
38 0 20
38 1 7
38 2 22
38 3 42
38 4 19
38 5 23
38 6 11
38 7 18
38 8 8
38 9 3
38 10 35
38 11 42
38 12 20
38 13 13
38 14 23
38 15 33
38 16 46
38 17 38
38 18 42
38 19 6
38 20 39
38 21 24
38 22 50
38 23 40
38 24 19
38 25 42
38 26 13
38 27 2
38 28 12
38 29 50
38 30 13
38 31 33
38 32 24
38 33 3
38 34 28
38 35 18
38 36 15
38 37 1
39 0 32
39 1 29
39 2 46
39 3 11
39 4 13
39 5 44
39 6 40
39 7 18
39 8 39
39 9 35
39 10 7
39 11 24
39 12 48
39 13 20
39 14 50
39 15 22
39 16 7
39 17 42
39 18 21
39 19 32
39 20 3
39 21 50
39 22 19
39 23 20
39 24 28
39 25 4
39 26 34
39 27 40
39 28 44
39 29 26
39 30 47
39 31 3
39 32 21
39 33 31
39 34 13
39 35 50
39 36 15
39 37 27
39 38 11
